%% Data: VRP — 6 ลูกค้า, 2 รถ, capacity 50 กก.
n_customers = 6;
n_vehicles  = 2;
capacity    = 100;

demand = [15, 20, 12, 25, 10, 18];  % ลูกค้า 1-6

%% dist[node, node] — n_nodes = 6+2 = 8
%% nodes 1-6: ลูกค้า, nodes 7-8: depot copy (รถ 1 และ 2)
dist = [|
%%    1   2   3   4   5   6   7   8
      0, 12,  8, 15, 10, 14,  5,  5  |  % C1
     12,  0,  9, 11, 16,  7,  8,  8  |  % C2
      8,  9,  0, 13,  6, 18,  6,  6  |  % C3
     15, 11, 13,  0,  9, 10,  9,  9  |  % C4
     10, 16,  6,  9,  0, 12,  7,  7  |  % C5
     14,  7, 18, 10, 12,  0, 11, 11  |  % C6
      5,  8,  6,  9,  7, 11,  0,  0  |  % Depot1
      5,  8,  6,  9,  7, 11,  0,  0  |];% Depot2
